instances/shortest_path/discrete/shortest_path_8_13.mps
* Signature: 0x229cff0c87735314
NAME nohadani_8_13
ROWS
 N  OBJ
 E  flow_cons_inner_nodes[1]
 E  flow_cons_inner_nodes[2]
 E  flow_cons_inner_nodes[3]
 E  flow_cons_inner_nodes[4]
 E  flow_cons_inner_nodes[5]
 E  flow_cons_inner_nodes[6]
 E  flow_cons_source
 E  flow_cons_target
 L  primal_lower
 L  mccormick1[0,1]
 L  mccormick1[0,2]
 L  mccormick1[0,4]
 L  mccormick1[0,6]
 L  mccormick1[1,0]
 L  mccormick1[1,2]
 L  mccormick1[1,3]
 L  mccormick1[1,4]
 L  mccormick1[1,5]
 L  mccormick1[1,6]
 L  mccormick1[1,7]
 L  mccormick1[2,0]
 L  mccormick1[2,1]
 L  mccormick1[2,3]
 L  mccormick1[2,4]
 L  mccormick1[2,5]
 L  mccormick1[2,6]
 L  mccormick1[2,7]
 L  mccormick1[3,1]
 L  mccormick1[3,2]
 L  mccormick1[3,4]
 L  mccormick1[3,5]
 L  mccormick1[3,6]
 L  mccormick1[3,7]
 L  mccormick1[4,0]
 L  mccormick1[4,1]
 L  mccormick1[4,2]
 L  mccormick1[4,3]
 L  mccormick1[4,6]
 L  mccormick1[5,1]
 L  mccormick1[5,2]
 L  mccormick1[5,3]
 L  mccormick1[5,6]
 L  mccormick1[5,7]
 L  mccormick1[6,0]
 L  mccormick1[6,1]
 L  mccormick1[6,2]
 L  mccormick1[6,3]
 L  mccormick1[6,4]
 L  mccormick1[6,5]
 L  mccormick1[6,7]
 L  mccormick1[7,1]
 L  mccormick1[7,2]
 L  mccormick1[7,3]
 L  mccormick1[7,5]
 L  mccormick1[7,6]
 L  mccormick2[0,1]
 L  mccormick2[0,2]
 L  mccormick2[0,4]
 L  mccormick2[0,6]
 L  mccormick2[1,0]
 L  mccormick2[1,2]
 L  mccormick2[1,3]
 L  mccormick2[1,4]
 L  mccormick2[1,5]
 L  mccormick2[1,6]
 L  mccormick2[1,7]
 L  mccormick2[2,0]
 L  mccormick2[2,1]
 L  mccormick2[2,3]
 L  mccormick2[2,4]
 L  mccormick2[2,5]
 L  mccormick2[2,6]
 L  mccormick2[2,7]
 L  mccormick2[3,1]
 L  mccormick2[3,2]
 L  mccormick2[3,4]
 L  mccormick2[3,5]
 L  mccormick2[3,6]
 L  mccormick2[3,7]
 L  mccormick2[4,0]
 L  mccormick2[4,1]
 L  mccormick2[4,2]
 L  mccormick2[4,3]
 L  mccormick2[4,6]
 L  mccormick2[5,1]
 L  mccormick2[5,2]
 L  mccormick2[5,3]
 L  mccormick2[5,6]
 L  mccormick2[5,7]
 L  mccormick2[6,0]
 L  mccormick2[6,1]
 L  mccormick2[6,2]
 L  mccormick2[6,3]
 L  mccormick2[6,4]
 L  mccormick2[6,5]
 L  mccormick2[6,7]
 L  mccormick2[7,1]
 L  mccormick2[7,2]
 L  mccormick2[7,3]
 L  mccormick2[7,5]
 L  mccormick2[7,6]
 G  mccormick3[0,1]
 G  mccormick3[0,2]
 G  mccormick3[0,4]
 G  mccormick3[0,6]
 G  mccormick3[1,0]
 G  mccormick3[1,2]
 G  mccormick3[1,3]
 G  mccormick3[1,4]
 G  mccormick3[1,5]
 G  mccormick3[1,6]
 G  mccormick3[1,7]
 G  mccormick3[2,0]
 G  mccormick3[2,1]
 G  mccormick3[2,3]
 G  mccormick3[2,4]
 G  mccormick3[2,5]
 G  mccormick3[2,6]
 G  mccormick3[2,7]
 G  mccormick3[3,1]
 G  mccormick3[3,2]
 G  mccormick3[3,4]
 G  mccormick3[3,5]
 G  mccormick3[3,6]
 G  mccormick3[3,7]
 G  mccormick3[4,0]
 G  mccormick3[4,1]
 G  mccormick3[4,2]
 G  mccormick3[4,3]
 G  mccormick3[4,6]
 G  mccormick3[5,1]
 G  mccormick3[5,2]
 G  mccormick3[5,3]
 G  mccormick3[5,6]
 G  mccormick3[5,7]
 G  mccormick3[6,0]
 G  mccormick3[6,1]
 G  mccormick3[6,2]
 G  mccormick3[6,3]
 G  mccormick3[6,4]
 G  mccormick3[6,5]
 G  mccormick3[6,7]
 G  mccormick3[7,1]
 G  mccormick3[7,2]
 G  mccormick3[7,3]
 G  mccormick3[7,5]
 G  mccormick3[7,6]
COLUMNS
    MARKER    'MARKER'                 'INTORG'
    y[0,1]    OBJ       4.8041648597857254e+01
    y[0,1]    flow_cons_inner_nodes[1]  1
    y[0,1]    flow_cons_source  1
    y[0,1]    mccormick2[0,1]  -1
    y[0,1]    mccormick3[0,1]  -1
    y[0,2]    OBJ       2.9068883707497267e+01
    y[0,2]    flow_cons_inner_nodes[2]  1
    y[0,2]    flow_cons_source  1
    y[0,2]    mccormick2[0,2]  -1
    y[0,2]    mccormick3[0,2]  -1
    y[0,4]    OBJ       4.6529560496527367e+01
    y[0,4]    flow_cons_inner_nodes[4]  1
    y[0,4]    flow_cons_source  1
    y[0,4]    mccormick2[0,4]  -1
    y[0,4]    mccormick3[0,4]  -1
    y[0,6]    OBJ       6.7119296778199342e+01
    y[0,6]    flow_cons_inner_nodes[6]  1
    y[0,6]    flow_cons_source  1
    y[0,6]    mccormick2[0,6]  -1
    y[0,6]    mccormick3[0,6]  -1
    y[1,0]    OBJ       4.8041648597857254e+01
    y[1,0]    flow_cons_inner_nodes[1]  -1
    y[1,0]    flow_cons_source  -1
    y[1,0]    mccormick2[1,0]  -1
    y[1,0]    mccormick3[1,0]  -1
    y[1,2]    OBJ       4.4821869662029940e+01
    y[1,2]    flow_cons_inner_nodes[1]  -1
    y[1,2]    flow_cons_inner_nodes[2]  1
    y[1,2]    mccormick2[1,2]  -1
    y[1,2]    mccormick3[1,2]  -1
    y[1,3]    OBJ       2.4515301344262525e+01
    y[1,3]    flow_cons_inner_nodes[1]  -1
    y[1,3]    flow_cons_inner_nodes[3]  1
    y[1,3]    mccormick2[1,3]  -1
    y[1,3]    mccormick3[1,3]  -1
    y[1,4]    OBJ       2.1189620100417091e+01
    y[1,4]    flow_cons_inner_nodes[1]  -1
    y[1,4]    flow_cons_inner_nodes[4]  1
    y[1,4]    mccormick2[1,4]  -1
    y[1,4]    mccormick3[1,4]  -1
    y[1,5]    OBJ       59
    y[1,5]    flow_cons_inner_nodes[1]  -1
    y[1,5]    flow_cons_inner_nodes[5]  1
    y[1,5]    mccormick2[1,5]  -1
    y[1,5]    mccormick3[1,5]  -1
    y[1,6]    OBJ       1.9924858845171276e+01
    y[1,6]    flow_cons_inner_nodes[1]  -1
    y[1,6]    flow_cons_inner_nodes[6]  1
    y[1,6]    mccormick2[1,6]  -1
    y[1,6]    mccormick3[1,6]  -1
    y[1,7]    OBJ       5.9363288318623319e+01
    y[1,7]    flow_cons_inner_nodes[1]  -1
    y[1,7]    flow_cons_target  1
    y[1,7]    mccormick2[1,7]  -1
    y[1,7]    mccormick3[1,7]  -1
    y[2,0]    OBJ       2.9068883707497267e+01
    y[2,0]    flow_cons_inner_nodes[2]  -1
    y[2,0]    flow_cons_source  -1
    y[2,0]    mccormick2[2,0]  -1
    y[2,0]    mccormick3[2,0]  -1
    y[2,1]    OBJ       4.4821869662029940e+01
    y[2,1]    flow_cons_inner_nodes[1]  1
    y[2,1]    flow_cons_inner_nodes[2]  -1
    y[2,1]    mccormick2[2,1]  -1
    y[2,1]    mccormick3[2,1]  -1
    y[2,3]    OBJ       6.3324560795950255e+01
    y[2,3]    flow_cons_inner_nodes[2]  -1
    y[2,3]    flow_cons_inner_nodes[3]  1
    y[2,3]    mccormick2[2,3]  -1
    y[2,3]    mccormick3[2,3]  -1
    y[2,4]    OBJ       5.5569775957799216e+01
    y[2,4]    flow_cons_inner_nodes[2]  -1
    y[2,4]    flow_cons_inner_nodes[4]  1
    y[2,4]    mccormick2[2,4]  -1
    y[2,4]    mccormick3[2,4]  -1
    y[2,5]    OBJ       4.6754678910243840e+01
    y[2,5]    flow_cons_inner_nodes[2]  -1
    y[2,5]    flow_cons_inner_nodes[5]  1
    y[2,5]    mccormick2[2,5]  -1
    y[2,5]    mccormick3[2,5]  -1
    y[2,6]    OBJ       5.8309518948453004e+01
    y[2,6]    flow_cons_inner_nodes[2]  -1
    y[2,6]    flow_cons_inner_nodes[6]  1
    y[2,6]    mccormick2[2,6]  -1
    y[2,6]    mccormick3[2,6]  -1
    y[2,7]    OBJ       7.0519500849055930e+01
    y[2,7]    flow_cons_inner_nodes[2]  -1
    y[2,7]    flow_cons_target  1
    y[2,7]    mccormick2[2,7]  -1
    y[2,7]    mccormick3[2,7]  -1
    y[3,1]    OBJ       2.4515301344262525e+01
    y[3,1]    flow_cons_inner_nodes[1]  1
    y[3,1]    flow_cons_inner_nodes[3]  -1
    y[3,1]    mccormick2[3,1]  -1
    y[3,1]    mccormick3[3,1]  -1
    y[3,2]    OBJ       6.3324560795950255e+01
    y[3,2]    flow_cons_inner_nodes[2]  1
    y[3,2]    flow_cons_inner_nodes[3]  -1
    y[3,2]    mccormick2[3,2]  -1
    y[3,2]    mccormick3[3,2]  -1
    y[3,4]    OBJ       3.9824615503479755e+01
    y[3,4]    flow_cons_inner_nodes[3]  -1
    y[3,4]    flow_cons_inner_nodes[4]  1
    y[3,4]    mccormick2[3,4]  -1
    y[3,4]    mccormick3[3,4]  -1
    y[3,5]    OBJ       5.9093146810776631e+01
    y[3,5]    flow_cons_inner_nodes[3]  -1
    y[3,5]    flow_cons_inner_nodes[5]  1
    y[3,5]    mccormick2[3,5]  -1
    y[3,5]    mccormick3[3,5]  -1
    y[3,6]    OBJ       5.0990195135927845e+00
    y[3,6]    flow_cons_inner_nodes[3]  -1
    y[3,6]    flow_cons_inner_nodes[6]  1
    y[3,6]    mccormick2[3,6]  -1
    y[3,6]    mccormick3[3,6]  -1
    y[3,7]    OBJ       4.5705579528105758e+01
    y[3,7]    flow_cons_inner_nodes[3]  -1
    y[3,7]    flow_cons_target  1
    y[3,7]    mccormick2[3,7]  -1
    y[3,7]    mccormick3[3,7]  -1
    y[4,0]    OBJ       4.6529560496527367e+01
    y[4,0]    flow_cons_inner_nodes[4]  -1
    y[4,0]    flow_cons_source  -1
    y[4,0]    mccormick2[4,0]  -1
    y[4,0]    mccormick3[4,0]  -1
    y[4,1]    OBJ       2.1189620100417091e+01
    y[4,1]    flow_cons_inner_nodes[1]  1
    y[4,1]    flow_cons_inner_nodes[4]  -1
    y[4,1]    mccormick2[4,1]  -1
    y[4,1]    mccormick3[4,1]  -1
    y[4,2]    OBJ       5.5569775957799216e+01
    y[4,2]    flow_cons_inner_nodes[2]  1
    y[4,2]    flow_cons_inner_nodes[4]  -1
    y[4,2]    mccormick2[4,2]  -1
    y[4,2]    mccormick3[4,2]  -1
    y[4,3]    OBJ       3.9824615503479755e+01
    y[4,3]    flow_cons_inner_nodes[3]  1
    y[4,3]    flow_cons_inner_nodes[4]  -1
    y[4,3]    mccormick2[4,3]  -1
    y[4,3]    mccormick3[4,3]  -1
    y[4,6]    OBJ       3.6769552621700470e+01
    y[4,6]    flow_cons_inner_nodes[4]  -1
    y[4,6]    flow_cons_inner_nodes[6]  1
    y[4,6]    mccormick2[4,6]  -1
    y[4,6]    mccormick3[4,6]  -1
    y[5,1]    OBJ       59
    y[5,1]    flow_cons_inner_nodes[1]  1
    y[5,1]    flow_cons_inner_nodes[5]  -1
    y[5,1]    mccormick2[5,1]  -1
    y[5,1]    mccormick3[5,1]  -1
    y[5,2]    OBJ       4.6754678910243840e+01
    y[5,2]    flow_cons_inner_nodes[2]  1
    y[5,2]    flow_cons_inner_nodes[5]  -1
    y[5,2]    mccormick2[5,2]  -1
    y[5,2]    mccormick3[5,2]  -1
    y[5,3]    OBJ       5.9093146810776631e+01
    y[5,3]    flow_cons_inner_nodes[3]  1
    y[5,3]    flow_cons_inner_nodes[5]  -1
    y[5,3]    mccormick2[5,3]  -1
    y[5,3]    mccormick3[5,3]  -1
    y[5,6]    OBJ       5.6302753041036986e+01
    y[5,6]    flow_cons_inner_nodes[5]  -1
    y[5,6]    flow_cons_inner_nodes[6]  1
    y[5,6]    mccormick2[5,6]  -1
    y[5,6]    mccormick3[5,6]  -1
    y[5,7]    OBJ       3.3241540277189323e+01
    y[5,7]    flow_cons_inner_nodes[5]  -1
    y[5,7]    flow_cons_target  1
    y[5,7]    mccormick2[5,7]  -1
    y[5,7]    mccormick3[5,7]  -1
    y[6,0]    OBJ       6.7119296778199342e+01
    y[6,0]    flow_cons_inner_nodes[6]  -1
    y[6,0]    flow_cons_source  -1
    y[6,0]    mccormick2[6,0]  -1
    y[6,0]    mccormick3[6,0]  -1
    y[6,1]    OBJ       1.9924858845171276e+01
    y[6,1]    flow_cons_inner_nodes[1]  1
    y[6,1]    flow_cons_inner_nodes[6]  -1
    y[6,1]    mccormick2[6,1]  -1
    y[6,1]    mccormick3[6,1]  -1
    y[6,2]    OBJ       5.8309518948453004e+01
    y[6,2]    flow_cons_inner_nodes[2]  1
    y[6,2]    flow_cons_inner_nodes[6]  -1
    y[6,2]    mccormick2[6,2]  -1
    y[6,2]    mccormick3[6,2]  -1
    y[6,3]    OBJ       5.0990195135927845e+00
    y[6,3]    flow_cons_inner_nodes[3]  1
    y[6,3]    flow_cons_inner_nodes[6]  -1
    y[6,3]    mccormick2[6,3]  -1
    y[6,3]    mccormick3[6,3]  -1
    y[6,4]    OBJ       3.6769552621700470e+01
    y[6,4]    flow_cons_inner_nodes[4]  1
    y[6,4]    flow_cons_inner_nodes[6]  -1
    y[6,4]    mccormick2[6,4]  -1
    y[6,4]    mccormick3[6,4]  -1
    y[6,5]    OBJ       5.6302753041036986e+01
    y[6,5]    flow_cons_inner_nodes[5]  1
    y[6,5]    flow_cons_inner_nodes[6]  -1
    y[6,5]    mccormick2[6,5]  -1
    y[6,5]    mccormick3[6,5]  -1
    y[6,7]    OBJ       4.5880278987817846e+01
    y[6,7]    flow_cons_inner_nodes[6]  -1
    y[6,7]    flow_cons_target  1
    y[6,7]    mccormick2[6,7]  -1
    y[6,7]    mccormick3[6,7]  -1
    y[7,1]    OBJ       5.9363288318623319e+01
    y[7,1]    flow_cons_inner_nodes[1]  1
    y[7,1]    flow_cons_target  -1
    y[7,1]    mccormick2[7,1]  -1
    y[7,1]    mccormick3[7,1]  -1
    y[7,2]    OBJ       7.0519500849055930e+01
    y[7,2]    flow_cons_inner_nodes[2]  1
    y[7,2]    flow_cons_target  -1
    y[7,2]    mccormick2[7,2]  -1
    y[7,2]    mccormick3[7,2]  -1
    y[7,3]    OBJ       4.5705579528105758e+01
    y[7,3]    flow_cons_inner_nodes[3]  1
    y[7,3]    flow_cons_target  -1
    y[7,3]    mccormick2[7,3]  -1
    y[7,3]    mccormick3[7,3]  -1
    y[7,5]    OBJ       3.3241540277189323e+01
    y[7,5]    flow_cons_inner_nodes[5]  1
    y[7,5]    flow_cons_target  -1
    y[7,5]    mccormick2[7,5]  -1
    y[7,5]    mccormick3[7,5]  -1
    y[7,6]    OBJ       4.5880278987817846e+01
    y[7,6]    flow_cons_inner_nodes[6]  1
    y[7,6]    flow_cons_target  -1
    y[7,6]    mccormick2[7,6]  -1
    y[7,6]    mccormick3[7,6]  -1
    x[0,1]    OBJ       1
    x[0,1]    primal_lower  2.1255957742478051e+00
    x[0,2]    OBJ       1
    x[0,2]    primal_lower  2.8177794726108174e+00
    x[0,4]    OBJ       1
    x[0,4]    primal_lower  3.4241573248770045e+00
    x[0,6]    OBJ       1
    x[0,6]    primal_lower  3.1763328574868743e+00
    x[1,0]    OBJ       1
    x[1,0]    primal_lower  1.0219381235542051e+00
    x[1,2]    OBJ       1
    x[1,2]    primal_lower  1.2623628666133935e+00
    x[1,3]    OBJ       1
    x[1,3]    primal_lower  2.0361996608154014e+00
    x[1,4]    OBJ       1
    x[1,4]    primal_lower  3.7578658142611090e+00
    x[1,5]    OBJ       1
    x[1,5]    primal_lower  2.2222346665547654e+00
    x[1,6]    OBJ       1
    x[1,6]    primal_lower  2.6269303749540942e+00
    x[1,7]    OBJ       1
    x[1,7]    primal_lower  4.1030793818730693e+00
    x[2,0]    OBJ       1
    x[2,0]    primal_lower  2.7572515719191091e+00
    x[2,1]    OBJ       1
    x[2,1]    primal_lower  3.0424899451041294e+00
    x[2,3]    OBJ       1
    x[2,3]    primal_lower  2.9308153885571757e+00
    x[2,4]    OBJ       1
    x[2,4]    primal_lower  4.0752667589461185e+00
    x[2,5]    OBJ       1
    x[2,5]    primal_lower  1.6177063971761612e+00
    x[2,6]    OBJ       1
    x[2,6]    primal_lower  1.4589855152507933e+00
    x[2,7]    OBJ       1
    x[2,7]    primal_lower  6.4715019981244692e-01
    x[3,1]    OBJ       1
    x[3,1]    primal_lower  3.5446025405430648e+00
    x[3,2]    OBJ       1
    x[3,2]    primal_lower  2.3510446980544368e+00
    x[3,4]    OBJ       1
    x[3,4]    primal_lower  2.1728185084550904e+00
    x[3,5]    OBJ       1
    x[3,5]    primal_lower  7.2808929506075171e-01
    x[3,6]    OBJ       1
    x[3,6]    primal_lower  2.4413580814777438e+00
    x[3,7]    OBJ       1
    x[3,7]    primal_lower  3.7639469413713295e-01
    x[4,0]    OBJ       1
    x[4,0]    primal_lower  5.9410423916284893e-01
    x[4,1]    OBJ       1
    x[4,1]    primal_lower  9.0732570851390415e-01
    x[4,2]    OBJ       1
    x[4,2]    primal_lower  2.4800149140354435e+00
    x[4,3]    OBJ       1
    x[4,3]    primal_lower  3.8414541030947782e-02
    x[4,6]    OBJ       1
    x[4,6]    primal_lower  3.7817995831119608e+00
    x[5,1]    OBJ       1
    x[5,1]    primal_lower  4.4231007259904503e-01
    x[5,2]    OBJ       1
    x[5,2]    primal_lower  4.0113953849769685e-01
    x[5,3]    OBJ       1
    x[5,3]    primal_lower  3.8258667513917670e+00
    x[5,6]    OBJ       1
    x[5,6]    primal_lower  5.8362150863000384e-01
    x[5,7]    OBJ       1
    x[5,7]    primal_lower  3.4315628039649093e+00
    x[6,0]    OBJ       1
    x[6,0]    primal_lower  3.5048144929194804e+00
    x[6,1]    OBJ       1
    x[6,1]    primal_lower  0.682938933125368
    x[6,2]    OBJ       1
    x[6,2]    primal_lower  3.8840067821973094e+00
    x[6,3]    OBJ       1
    x[6,3]    primal_lower  3.1980303776261048e+00
    x[6,4]    OBJ       1
    x[6,4]    primal_lower  2.7756936196869026e+00
    x[6,5]    OBJ       1
    x[6,5]    primal_lower  2.8440858008355843e+00
    x[6,7]    OBJ       1
    x[6,7]    primal_lower  1.4055906980816397e+00
    x[7,1]    OBJ       1
    x[7,1]    primal_lower  1.2287603447262303e+00
    x[7,2]    OBJ       1
    x[7,2]    primal_lower  3.2279930011322708e+00
    x[7,3]    OBJ       1
    x[7,3]    primal_lower  2.8589599289542909e+00
    x[7,5]    OBJ       1
    x[7,5]    primal_lower  4.1340116343576341e+00
    x[7,6]    OBJ       1
    x[7,6]    primal_lower  2.2384023223461762e+00
    u[0,1]    primal_lower  39
    u[0,1]    mccormick1[0,1]  -1
    u[0,1]    mccormick3[0,1]  -1
    u[0,2]    primal_lower  64
    u[0,2]    mccormick1[0,2]  -1
    u[0,2]    mccormick3[0,2]  -1
    u[0,4]    primal_lower  30
    u[0,4]    mccormick1[0,4]  -1
    u[0,4]    mccormick3[0,4]  -1
    u[0,6]    primal_lower  35
    u[0,6]    mccormick1[0,6]  -1
    u[0,6]    mccormick3[0,6]  -1
    u[1,0]    primal_lower  8
    u[1,0]    mccormick1[1,0]  -1
    u[1,0]    mccormick3[1,0]  -1
    u[1,2]    primal_lower  81
    u[1,2]    mccormick1[1,2]  -1
    u[1,2]    mccormick3[1,2]  -1
    u[1,3]    primal_lower  9
    u[1,3]    mccormick1[1,3]  -1
    u[1,3]    mccormick3[1,3]  -1
    u[1,4]    primal_lower  59
    u[1,4]    mccormick1[1,4]  -1
    u[1,4]    mccormick3[1,4]  -1
    u[1,5]    primal_lower  85
    u[1,5]    mccormick1[1,5]  -1
    u[1,5]    mccormick3[1,5]  -1
    u[1,6]    primal_lower  62
    u[1,6]    mccormick1[1,6]  -1
    u[1,6]    mccormick3[1,6]  -1
    u[1,7]    primal_lower  7
    u[1,7]    mccormick1[1,7]  -1
    u[1,7]    mccormick3[1,7]  -1
    u[2,0]    primal_lower  51
    u[2,0]    mccormick1[2,0]  -1
    u[2,0]    mccormick3[2,0]  -1
    u[2,1]    primal_lower  92
    u[2,1]    mccormick1[2,1]  -1
    u[2,1]    mccormick3[2,1]  -1
    u[2,3]    primal_lower  36
    u[2,3]    mccormick1[2,3]  -1
    u[2,3]    mccormick3[2,3]  -1
    u[2,4]    primal_lower  8
    u[2,4]    mccormick1[2,4]  -1
    u[2,4]    mccormick3[2,4]  -1
    u[2,5]    primal_lower  100
    u[2,5]    mccormick1[2,5]  -1
    u[2,5]    mccormick3[2,5]  -1
    u[2,6]    primal_lower  65
    u[2,6]    mccormick1[2,6]  -1
    u[2,6]    mccormick3[2,6]  -1
    u[2,7]    primal_lower  24
    u[2,7]    mccormick1[2,7]  -1
    u[2,7]    mccormick3[2,7]  -1
    u[3,1]    primal_lower  65
    u[3,1]    mccormick1[3,1]  -1
    u[3,1]    mccormick3[3,1]  -1
    u[3,2]    primal_lower  54
    u[3,2]    mccormick1[3,2]  -1
    u[3,2]    mccormick3[3,2]  -1
    u[3,4]    primal_lower  21
    u[3,4]    mccormick1[3,4]  -1
    u[3,4]    mccormick3[3,4]  -1
    u[3,5]    primal_lower  87
    u[3,5]    mccormick1[3,5]  -1
    u[3,5]    mccormick3[3,5]  -1
    u[3,6]    primal_lower  40
    u[3,6]    mccormick1[3,6]  -1
    u[3,6]    mccormick3[3,6]  -1
    u[3,7]    primal_lower  34
    u[3,7]    mccormick1[3,7]  -1
    u[3,7]    mccormick3[3,7]  -1
    u[4,0]    primal_lower  64
    u[4,0]    mccormick1[4,0]  -1
    u[4,0]    mccormick3[4,0]  -1
    u[4,1]    primal_lower  96
    u[4,1]    mccormick1[4,1]  -1
    u[4,1]    mccormick3[4,1]  -1
    u[4,2]    primal_lower  58
    u[4,2]    mccormick1[4,2]  -1
    u[4,2]    mccormick3[4,2]  -1
    u[4,3]    primal_lower  15
    u[4,3]    mccormick1[4,3]  -1
    u[4,3]    mccormick3[4,3]  -1
    u[4,6]    primal_lower  21
    u[4,6]    mccormick1[4,6]  -1
    u[4,6]    mccormick3[4,6]  -1
    u[5,1]    primal_lower  19
    u[5,1]    mccormick1[5,1]  -1
    u[5,1]    mccormick3[5,1]  -1
    u[5,2]    primal_lower  85
    u[5,2]    mccormick1[5,2]  -1
    u[5,2]    mccormick3[5,2]  -1
    u[5,3]    primal_lower  23
    u[5,3]    mccormick1[5,3]  -1
    u[5,3]    mccormick3[5,3]  -1
    u[5,6]    primal_lower  31
    u[5,6]    mccormick1[5,6]  -1
    u[5,6]    mccormick3[5,6]  -1
    u[5,7]    primal_lower  61
    u[5,7]    mccormick1[5,7]  -1
    u[5,7]    mccormick3[5,7]  -1
    u[6,0]    primal_lower  4
    u[6,0]    mccormick1[6,0]  -1
    u[6,0]    mccormick3[6,0]  -1
    u[6,1]    primal_lower  49
    u[6,1]    mccormick1[6,1]  -1
    u[6,1]    mccormick3[6,1]  -1
    u[6,2]    primal_lower  8
    u[6,2]    mccormick1[6,2]  -1
    u[6,2]    mccormick3[6,2]  -1
    u[6,3]    primal_lower  48
    u[6,3]    mccormick1[6,3]  -1
    u[6,3]    mccormick3[6,3]  -1
    u[6,4]    primal_lower  100
    u[6,4]    mccormick1[6,4]  -1
    u[6,4]    mccormick3[6,4]  -1
    u[6,5]    primal_lower  38
    u[6,5]    mccormick1[6,5]  -1
    u[6,5]    mccormick3[6,5]  -1
    u[6,7]    primal_lower  55
    u[6,7]    mccormick1[6,7]  -1
    u[6,7]    mccormick3[6,7]  -1
    u[7,1]    primal_lower  41
    u[7,1]    mccormick1[7,1]  -1
    u[7,1]    mccormick3[7,1]  -1
    u[7,2]    primal_lower  2
    u[7,2]    mccormick1[7,2]  -1
    u[7,2]    mccormick3[7,2]  -1
    u[7,3]    primal_lower  57
    u[7,3]    mccormick1[7,3]  -1
    u[7,3]    mccormick3[7,3]  -1
    u[7,5]    primal_lower  19
    u[7,5]    mccormick1[7,5]  -1
    u[7,5]    mccormick3[7,5]  -1
    u[7,6]    primal_lower  74
    u[7,6]    mccormick1[7,6]  -1
    u[7,6]    mccormick3[7,6]  -1
    r[0,1]    OBJ       4.8041648597857254e+00
    r[0,1]    mccormick1[0,1]  1
    r[0,1]    mccormick2[0,1]  1
    r[0,1]    mccormick3[0,1]  1
    r[0,2]    OBJ       2.9068883707497268e+00
    r[0,2]    mccormick1[0,2]  1
    r[0,2]    mccormick2[0,2]  1
    r[0,2]    mccormick3[0,2]  1
    r[0,4]    OBJ       4.6529560496527367e+00
    r[0,4]    mccormick1[0,4]  1
    r[0,4]    mccormick2[0,4]  1
    r[0,4]    mccormick3[0,4]  1
    r[0,6]    OBJ       6.7119296778199349e+00
    r[0,6]    mccormick1[0,6]  1
    r[0,6]    mccormick2[0,6]  1
    r[0,6]    mccormick3[0,6]  1
    r[1,0]    OBJ       4.8041648597857254e+00
    r[1,0]    mccormick1[1,0]  1
    r[1,0]    mccormick2[1,0]  1
    r[1,0]    mccormick3[1,0]  1
    r[1,2]    OBJ       4.4821869662029945e+00
    r[1,2]    mccormick1[1,2]  1
    r[1,2]    mccormick2[1,2]  1
    r[1,2]    mccormick3[1,2]  1
    r[1,3]    OBJ       2.4515301344262528e+00
    r[1,3]    mccormick1[1,3]  1
    r[1,3]    mccormick2[1,3]  1
    r[1,3]    mccormick3[1,3]  1
    r[1,4]    OBJ       2.1189620100417090e+00
    r[1,4]    mccormick1[1,4]  1
    r[1,4]    mccormick2[1,4]  1
    r[1,4]    mccormick3[1,4]  1
    r[1,5]    OBJ       5.9
    r[1,5]    mccormick1[1,5]  1
    r[1,5]    mccormick2[1,5]  1
    r[1,5]    mccormick3[1,5]  1
    r[1,6]    OBJ       1.9924858845171276e+00
    r[1,6]    mccormick1[1,6]  1
    r[1,6]    mccormick2[1,6]  1
    r[1,6]    mccormick3[1,6]  1
    r[1,7]    OBJ       5.9363288318623324e+00
    r[1,7]    mccormick1[1,7]  1
    r[1,7]    mccormick2[1,7]  1
    r[1,7]    mccormick3[1,7]  1
    r[2,0]    OBJ       2.9068883707497268e+00
    r[2,0]    mccormick1[2,0]  1
    r[2,0]    mccormick2[2,0]  1
    r[2,0]    mccormick3[2,0]  1
    r[2,1]    OBJ       4.4821869662029945e+00
    r[2,1]    mccormick1[2,1]  1
    r[2,1]    mccormick2[2,1]  1
    r[2,1]    mccormick3[2,1]  1
    r[2,3]    OBJ       6.3324560795950262e+00
    r[2,3]    mccormick1[2,3]  1
    r[2,3]    mccormick2[2,3]  1
    r[2,3]    mccormick3[2,3]  1
    r[2,4]    OBJ       5.5569775957799221e+00
    r[2,4]    mccormick1[2,4]  1
    r[2,4]    mccormick2[2,4]  1
    r[2,4]    mccormick3[2,4]  1
    r[2,5]    OBJ       4.6754678910243843e+00
    r[2,5]    mccormick1[2,5]  1
    r[2,5]    mccormick2[2,5]  1
    r[2,5]    mccormick3[2,5]  1
    r[2,6]    OBJ       5.8309518948453007e+00
    r[2,6]    mccormick1[2,6]  1
    r[2,6]    mccormick2[2,6]  1
    r[2,6]    mccormick3[2,6]  1
    r[2,7]    OBJ       7.0519500849055934e+00
    r[2,7]    mccormick1[2,7]  1
    r[2,7]    mccormick2[2,7]  1
    r[2,7]    mccormick3[2,7]  1
    r[3,1]    OBJ       2.4515301344262528e+00
    r[3,1]    mccormick1[3,1]  1
    r[3,1]    mccormick2[3,1]  1
    r[3,1]    mccormick3[3,1]  1
    r[3,2]    OBJ       6.3324560795950262e+00
    r[3,2]    mccormick1[3,2]  1
    r[3,2]    mccormick2[3,2]  1
    r[3,2]    mccormick3[3,2]  1
    r[3,4]    OBJ       3.9824615503479759e+00
    r[3,4]    mccormick1[3,4]  1
    r[3,4]    mccormick2[3,4]  1
    r[3,4]    mccormick3[3,4]  1
    r[3,5]    OBJ       5.9093146810776638e+00
    r[3,5]    mccormick1[3,5]  1
    r[3,5]    mccormick2[3,5]  1
    r[3,5]    mccormick3[3,5]  1
    r[3,6]    OBJ       5.0990195135927852e-01
    r[3,6]    mccormick1[3,6]  1
    r[3,6]    mccormick2[3,6]  1
    r[3,6]    mccormick3[3,6]  1
    r[3,7]    OBJ       4.5705579528105762e+00
    r[3,7]    mccormick1[3,7]  1
    r[3,7]    mccormick2[3,7]  1
    r[3,7]    mccormick3[3,7]  1
    r[4,0]    OBJ       4.6529560496527367e+00
    r[4,0]    mccormick1[4,0]  1
    r[4,0]    mccormick2[4,0]  1
    r[4,0]    mccormick3[4,0]  1
    r[4,1]    OBJ       2.1189620100417090e+00
    r[4,1]    mccormick1[4,1]  1
    r[4,1]    mccormick2[4,1]  1
    r[4,1]    mccormick3[4,1]  1
    r[4,2]    OBJ       5.5569775957799221e+00
    r[4,2]    mccormick1[4,2]  1
    r[4,2]    mccormick2[4,2]  1
    r[4,2]    mccormick3[4,2]  1
    r[4,3]    OBJ       3.9824615503479759e+00
    r[4,3]    mccormick1[4,3]  1
    r[4,3]    mccormick2[4,3]  1
    r[4,3]    mccormick3[4,3]  1
    r[4,6]    OBJ       3.6769552621700470e+00
    r[4,6]    mccormick1[4,6]  1
    r[4,6]    mccormick2[4,6]  1
    r[4,6]    mccormick3[4,6]  1
    r[5,1]    OBJ       5.9
    r[5,1]    mccormick1[5,1]  1
    r[5,1]    mccormick2[5,1]  1
    r[5,1]    mccormick3[5,1]  1
    r[5,2]    OBJ       4.6754678910243843e+00
    r[5,2]    mccormick1[5,2]  1
    r[5,2]    mccormick2[5,2]  1
    r[5,2]    mccormick3[5,2]  1
    r[5,3]    OBJ       5.9093146810776638e+00
    r[5,3]    mccormick1[5,3]  1
    r[5,3]    mccormick2[5,3]  1
    r[5,3]    mccormick3[5,3]  1
    r[5,6]    OBJ       5.6302753041036988e+00
    r[5,6]    mccormick1[5,6]  1
    r[5,6]    mccormick2[5,6]  1
    r[5,6]    mccormick3[5,6]  1
    r[5,7]    OBJ       3.3241540277189325e+00
    r[5,7]    mccormick1[5,7]  1
    r[5,7]    mccormick2[5,7]  1
    r[5,7]    mccormick3[5,7]  1
    r[6,0]    OBJ       6.7119296778199349e+00
    r[6,0]    mccormick1[6,0]  1
    r[6,0]    mccormick2[6,0]  1
    r[6,0]    mccormick3[6,0]  1
    r[6,1]    OBJ       1.9924858845171276e+00
    r[6,1]    mccormick1[6,1]  1
    r[6,1]    mccormick2[6,1]  1
    r[6,1]    mccormick3[6,1]  1
    r[6,2]    OBJ       5.8309518948453007e+00
    r[6,2]    mccormick1[6,2]  1
    r[6,2]    mccormick2[6,2]  1
    r[6,2]    mccormick3[6,2]  1
    r[6,3]    OBJ       5.0990195135927852e-01
    r[6,3]    mccormick1[6,3]  1
    r[6,3]    mccormick2[6,3]  1
    r[6,3]    mccormick3[6,3]  1
    r[6,4]    OBJ       3.6769552621700470e+00
    r[6,4]    mccormick1[6,4]  1
    r[6,4]    mccormick2[6,4]  1
    r[6,4]    mccormick3[6,4]  1
    r[6,5]    OBJ       5.6302753041036988e+00
    r[6,5]    mccormick1[6,5]  1
    r[6,5]    mccormick2[6,5]  1
    r[6,5]    mccormick3[6,5]  1
    r[6,7]    OBJ       4.5880278987817844e+00
    r[6,7]    mccormick1[6,7]  1
    r[6,7]    mccormick2[6,7]  1
    r[6,7]    mccormick3[6,7]  1
    r[7,1]    OBJ       5.9363288318623324e+00
    r[7,1]    mccormick1[7,1]  1
    r[7,1]    mccormick2[7,1]  1
    r[7,1]    mccormick3[7,1]  1
    r[7,2]    OBJ       7.0519500849055934e+00
    r[7,2]    mccormick1[7,2]  1
    r[7,2]    mccormick2[7,2]  1
    r[7,2]    mccormick3[7,2]  1
    r[7,3]    OBJ       4.5705579528105762e+00
    r[7,3]    mccormick1[7,3]  1
    r[7,3]    mccormick2[7,3]  1
    r[7,3]    mccormick3[7,3]  1
    r[7,5]    OBJ       3.3241540277189325e+00
    r[7,5]    mccormick1[7,5]  1
    r[7,5]    mccormick2[7,5]  1
    r[7,5]    mccormick3[7,5]  1
    r[7,6]    OBJ       4.5880278987817844e+00
    r[7,6]    mccormick1[7,6]  1
    r[7,6]    mccormick2[7,6]  1
    r[7,6]    mccormick3[7,6]  1
    MARKER    'MARKER'                 'INTEND'
RHS
    RHS1      flow_cons_source  1
    RHS1      flow_cons_target  1
    RHS1      primal_lower  193
    RHS1      mccormick3[0,1]  -1
    RHS1      mccormick3[0,2]  -1
    RHS1      mccormick3[0,4]  -1
    RHS1      mccormick3[0,6]  -1
    RHS1      mccormick3[1,0]  -1
    RHS1      mccormick3[1,2]  -1
    RHS1      mccormick3[1,3]  -1
    RHS1      mccormick3[1,4]  -1
    RHS1      mccormick3[1,5]  -1
    RHS1      mccormick3[1,6]  -1
    RHS1      mccormick3[1,7]  -1
    RHS1      mccormick3[2,0]  -1
    RHS1      mccormick3[2,1]  -1
    RHS1      mccormick3[2,3]  -1
    RHS1      mccormick3[2,4]  -1
    RHS1      mccormick3[2,5]  -1
    RHS1      mccormick3[2,6]  -1
    RHS1      mccormick3[2,7]  -1
    RHS1      mccormick3[3,1]  -1
    RHS1      mccormick3[3,2]  -1
    RHS1      mccormick3[3,4]  -1
    RHS1      mccormick3[3,5]  -1
    RHS1      mccormick3[3,6]  -1
    RHS1      mccormick3[3,7]  -1
    RHS1      mccormick3[4,0]  -1
    RHS1      mccormick3[4,1]  -1
    RHS1      mccormick3[4,2]  -1
    RHS1      mccormick3[4,3]  -1
    RHS1      mccormick3[4,6]  -1
    RHS1      mccormick3[5,1]  -1
    RHS1      mccormick3[5,2]  -1
    RHS1      mccormick3[5,3]  -1
    RHS1      mccormick3[5,6]  -1
    RHS1      mccormick3[5,7]  -1
    RHS1      mccormick3[6,0]  -1
    RHS1      mccormick3[6,1]  -1
    RHS1      mccormick3[6,2]  -1
    RHS1      mccormick3[6,3]  -1
    RHS1      mccormick3[6,4]  -1
    RHS1      mccormick3[6,5]  -1
    RHS1      mccormick3[6,7]  -1
    RHS1      mccormick3[7,1]  -1
    RHS1      mccormick3[7,2]  -1
    RHS1      mccormick3[7,3]  -1
    RHS1      mccormick3[7,5]  -1
    RHS1      mccormick3[7,6]  -1
BOUNDS
 BV BND1      y[0,1]  
 BV BND1      y[0,2]  
 BV BND1      y[0,4]  
 BV BND1      y[0,6]  
 BV BND1      y[1,0]  
 BV BND1      y[1,2]  
 BV BND1      y[1,3]  
 BV BND1      y[1,4]  
 BV BND1      y[1,5]  
 BV BND1      y[1,6]  
 BV BND1      y[1,7]  
 BV BND1      y[2,0]  
 BV BND1      y[2,1]  
 BV BND1      y[2,3]  
 BV BND1      y[2,4]  
 BV BND1      y[2,5]  
 BV BND1      y[2,6]  
 BV BND1      y[2,7]  
 BV BND1      y[3,1]  
 BV BND1      y[3,2]  
 BV BND1      y[3,4]  
 BV BND1      y[3,5]  
 BV BND1      y[3,6]  
 BV BND1      y[3,7]  
 BV BND1      y[4,0]  
 BV BND1      y[4,1]  
 BV BND1      y[4,2]  
 BV BND1      y[4,3]  
 BV BND1      y[4,6]  
 BV BND1      y[5,1]  
 BV BND1      y[5,2]  
 BV BND1      y[5,3]  
 BV BND1      y[5,6]  
 BV BND1      y[5,7]  
 BV BND1      y[6,0]  
 BV BND1      y[6,1]  
 BV BND1      y[6,2]  
 BV BND1      y[6,3]  
 BV BND1      y[6,4]  
 BV BND1      y[6,5]  
 BV BND1      y[6,7]  
 BV BND1      y[7,1]  
 BV BND1      y[7,2]  
 BV BND1      y[7,3]  
 BV BND1      y[7,5]  
 BV BND1      y[7,6]  
 BV BND1      x[0,1]  
 BV BND1      x[0,2]  
 BV BND1      x[0,4]  
 BV BND1      x[0,6]  
 BV BND1      x[1,0]  
 BV BND1      x[1,2]  
 BV BND1      x[1,3]  
 BV BND1      x[1,4]  
 BV BND1      x[1,5]  
 BV BND1      x[1,6]  
 BV BND1      x[1,7]  
 BV BND1      x[2,0]  
 BV BND1      x[2,1]  
 BV BND1      x[2,3]  
 BV BND1      x[2,4]  
 BV BND1      x[2,5]  
 BV BND1      x[2,6]  
 BV BND1      x[2,7]  
 BV BND1      x[3,1]  
 BV BND1      x[3,2]  
 BV BND1      x[3,4]  
 BV BND1      x[3,5]  
 BV BND1      x[3,6]  
 BV BND1      x[3,7]  
 BV BND1      x[4,0]  
 BV BND1      x[4,1]  
 BV BND1      x[4,2]  
 BV BND1      x[4,3]  
 BV BND1      x[4,6]  
 BV BND1      x[5,1]  
 BV BND1      x[5,2]  
 BV BND1      x[5,3]  
 BV BND1      x[5,6]  
 BV BND1      x[5,7]  
 BV BND1      x[6,0]  
 BV BND1      x[6,1]  
 BV BND1      x[6,2]  
 BV BND1      x[6,3]  
 BV BND1      x[6,4]  
 BV BND1      x[6,5]  
 BV BND1      x[6,7]  
 BV BND1      x[7,1]  
 BV BND1      x[7,2]  
 BV BND1      x[7,3]  
 BV BND1      x[7,5]  
 BV BND1      x[7,6]  
 BV BND1      u[0,1]  
 BV BND1      u[0,2]  
 BV BND1      u[0,4]  
 BV BND1      u[0,6]  
 BV BND1      u[1,0]  
 BV BND1      u[1,2]  
 BV BND1      u[1,3]  
 BV BND1      u[1,4]  
 BV BND1      u[1,5]  
 BV BND1      u[1,6]  
 BV BND1      u[1,7]  
 BV BND1      u[2,0]  
 BV BND1      u[2,1]  
 BV BND1      u[2,3]  
 BV BND1      u[2,4]  
 BV BND1      u[2,5]  
 BV BND1      u[2,6]  
 BV BND1      u[2,7]  
 BV BND1      u[3,1]  
 BV BND1      u[3,2]  
 BV BND1      u[3,4]  
 BV BND1      u[3,5]  
 BV BND1      u[3,6]  
 BV BND1      u[3,7]  
 BV BND1      u[4,0]  
 BV BND1      u[4,1]  
 BV BND1      u[4,2]  
 BV BND1      u[4,3]  
 BV BND1      u[4,6]  
 BV BND1      u[5,1]  
 BV BND1      u[5,2]  
 BV BND1      u[5,3]  
 BV BND1      u[5,6]  
 BV BND1      u[5,7]  
 BV BND1      u[6,0]  
 BV BND1      u[6,1]  
 BV BND1      u[6,2]  
 BV BND1      u[6,3]  
 BV BND1      u[6,4]  
 BV BND1      u[6,5]  
 BV BND1      u[6,7]  
 BV BND1      u[7,1]  
 BV BND1      u[7,2]  
 BV BND1      u[7,3]  
 BV BND1      u[7,5]  
 BV BND1      u[7,6]  
 BV BND1      r[0,1]  
 BV BND1      r[0,2]  
 BV BND1      r[0,4]  
 BV BND1      r[0,6]  
 BV BND1      r[1,0]  
 BV BND1      r[1,2]  
 BV BND1      r[1,3]  
 BV BND1      r[1,4]  
 BV BND1      r[1,5]  
 BV BND1      r[1,6]  
 BV BND1      r[1,7]  
 BV BND1      r[2,0]  
 BV BND1      r[2,1]  
 BV BND1      r[2,3]  
 BV BND1      r[2,4]  
 BV BND1      r[2,5]  
 BV BND1      r[2,6]  
 BV BND1      r[2,7]  
 BV BND1      r[3,1]  
 BV BND1      r[3,2]  
 BV BND1      r[3,4]  
 BV BND1      r[3,5]  
 BV BND1      r[3,6]  
 BV BND1      r[3,7]  
 BV BND1      r[4,0]  
 BV BND1      r[4,1]  
 BV BND1      r[4,2]  
 BV BND1      r[4,3]  
 BV BND1      r[4,6]  
 BV BND1      r[5,1]  
 BV BND1      r[5,2]  
 BV BND1      r[5,3]  
 BV BND1      r[5,6]  
 BV BND1      r[5,7]  
 BV BND1      r[6,0]  
 BV BND1      r[6,1]  
 BV BND1      r[6,2]  
 BV BND1      r[6,3]  
 BV BND1      r[6,4]  
 BV BND1      r[6,5]  
 BV BND1      r[6,7]  
 BV BND1      r[7,1]  
 BV BND1      r[7,2]  
 BV BND1      r[7,3]  
 BV BND1      r[7,5]  
 BV BND1      r[7,6]  
ENDATA
