instances/shortest_path/discrete/shortest_path_8_13.kp
19669
193

[2.125595774247805 2.8177794726108174 3.4241573248770045 3.1763328574868743 1.021938123554205 1.2623628666133935 2.0361996608154014 3.757865814261109 2.2222346665547654 2.626930374954094 4.103079381873069 2.757251571919109 3.0424899451041294 2.9308153885571757 4.0752667589461185 1.6177063971761612 1.4589855152507933 0.6471501998124469 3.544602540543065 2.351044698054437 2.1728185084550904 0.7280892950607517 2.441358081477744 0.37639469413713295 0.5941042391628489 0.9073257085139042 2.4800149140354435 0.03841454103094778 3.781799583111961 0.44231007259904503 0.40113953849769685 3.825866751391767 0.5836215086300038 3.4315628039649093 3.5048144929194804 0.682938933125368 3.8840067821973094 3.1980303776261048 2.7756936196869026 2.8440858008355843 1.4055906980816397 1.2287603447262303 3.227993001132271 2.858959928954291 4.134011634357634 2.238402322346176]

[39 64 30 35 8 81 9 59 85 62 7 51 92 36 8 100 65 24 65 54 21 87 40 34 64 96 58 15 21 19 85 23 31 61 4 49 8 48 100 38 55 41 2 57 19 74]
